c p0=0.08
p cnf 10 43
6 10 -7 0
-10 -8 2 0
-2 6 -10 0
8 -1 6 0
8 2 5 0
1 -6 -8 0
6 -8 1 0
-9 3 7 0
-5 9 2 0
-3 1 -5 0
-6 -3 -8 0
2 10 1 0
1 -9 7 0
5 -6 -9 0
-9 -4 -5 0
-1 3 -9 0
1 10 5 0
-1 -9 8 0
-3 7 1 0
-4 6 1 0
-4 -2 9 0
-10 4 7 0
8 -1 -4 0
-10 1 -3 0
-3 1 7 0
-7 5 4 0
1 8 3 0
2 -6 -8 0
-6 3 -5 0
10 9 -4 0
3 10 2 0
5 4 8 0
7 10 3 0
-9 6 -5 0
3 -2 -9 0
10 1 6 0
2 5 4 0
3 10 2 0
1 -3 -5 0
-8 4 -3 0
-9 -5 -2 0
-5 -1 10 0
7 1 -9 0
